JulietBench/Juliet_Based_Patch_Bench/linux/CWE-189-Numeric-Errors/CVE_2011_4611_0837e3242c73566fc1c0196b4ec61779c25ffc93/solverperf_event_interrupt_Snippet_patch2.smt2
; benchmark generated from python API
(set-info :status unknown)
(declare-fun R () (_ BitVec 32))
(declare-fun rdi () (_ BitVec 64))
(assert
 (let (($x79 (= (_ bv1 32) R)))
 (let ((?x6 ((_ extract 31 0) rdi)))
 (let ((?x7 ((_ zero_extend 32) ?x6)))
 (let ((?x11 (bvlshr ?x7 (_ bv31 64))))
 (let ((?x20 ((_ extract 0 0) ?x11)))
 (let ((?x27 (bvand ?x20 (_ bv1 1))))
 (let (($x26 (and (distinct (_ bv0 1) ?x27) true)))
 (let (($x80 (and $x26 $x79)))
 (let (($x76 (= (_ bv0 32) R)))
 (let (($x53 (= (_ bv0 1) ?x27)))
 (let (($x77 (and $x53 $x76)))
 (let (($x81 (or $x77 $x80)))
 (let (($x82 (not $x81)))
 (let (($x83 (or $x77 $x80 $x82)))
 (not $x83))))))))))))))))
(check-sat)
